* #variable= 24 #constraint= 3 
+1 x1 -1 x13 +2 x2 -2 x14 +4 x3 -4 x15 +8 x4 -8 x16 +16 x5 -16 x17 +32 x6 -32 x18 +64 x7 -64 x19 +128 x8 -128 x20 +256 x9 -256 x21 +512 x10 -512 x22 +1024 x11 -1024 x23 +2048 x12 -2048 x24 = 0 ;
-1 x1 -1 x13 >= -1; 
+1 x1 +1 x13 >= 1; 
